60
1 0 9
2 0 2
2 1 1
3 0 11
3 1 2
3 2 2
4 0 2
4 1 12
4 2 1
4 3 2
5 0 3
5 1 1
5 2 8
5 3 3
5 4 2
6 0 9
6 1 3
6 2 9
6 3 12
6 4 4
6 5 7
7 0 8
7 1 10
7 2 1
7 3 9
7 4 4
7 5 1
7 6 12
8 0 6
8 1 12
8 2 1
8 3 11
8 4 5
8 5 3
8 6 2
8 7 9
9 0 4
9 1 2
9 2 7
9 3 8
9 4 9
9 5 7
9 6 5
9 7 7
9 8 12
10 0 4
10 1 6
10 2 12
10 3 9
10 4 9
10 5 9
10 6 1
10 7 3
10 8 9
10 9 10
11 0 1
11 1 6
11 2 8
11 3 8
11 4 8
11 5 5
11 6 7
11 7 12
11 8 8
11 9 2
11 10 6
12 0 6
12 1 2
12 2 3
12 3 6
12 4 7
12 5 10
12 6 7
12 7 8
12 8 2
12 9 5
12 10 6
12 11 8
13 0 1
13 1 10
13 2 7
13 3 1
13 4 8
13 5 2
13 6 9
13 7 4
13 8 10
13 9 1
13 10 11
13 11 7
13 12 8
14 0 5
14 1 11
14 2 5
14 3 3
14 4 7
14 5 12
14 6 1
14 7 3
14 8 12
14 9 5
14 10 2
14 11 6
14 12 7
14 13 6
15 0 8
15 1 7
15 2 8
15 3 3
15 4 11
15 5 4
15 6 6
15 7 9
15 8 9
15 9 9
15 10 2
15 11 2
15 12 5
15 13 11
15 14 8
16 0 2
16 1 8
16 2 12
16 3 2
16 4 1
16 5 7
16 6 10
16 7 7
16 8 9
16 9 5
16 10 4
16 11 3
16 12 11
16 13 11
16 14 4
16 15 5
17 0 10
17 1 11
17 2 7
17 3 12
17 4 10
17 5 10
17 6 4
17 7 11
17 8 10
17 9 4
17 10 4
17 11 1
17 12 5
17 13 6
17 14 8
17 15 3
17 16 8
18 0 9
18 1 7
18 2 10
18 3 10
18 4 8
18 5 11
18 6 1
18 7 10
18 8 8
18 9 6
18 10 1
18 11 8
18 12 6
18 13 7
18 14 10
18 15 10
18 16 4
18 17 12
19 0 6
19 1 8
19 2 10
19 3 11
19 4 4
19 5 11
19 6 10
19 7 9
19 8 11
19 9 9
19 10 3
19 11 10
19 12 11
19 13 4
19 14 5
19 15 10
19 16 7
19 17 2
19 18 9
20 0 5
20 1 3
20 2 10
20 3 4
20 4 9
20 5 12
20 6 11
20 7 6
20 8 5
20 9 10
20 10 2
20 11 7
20 12 1
20 13 12
20 14 1
20 15 7
20 16 12
20 17 11
20 18 12
20 19 12
21 0 9
21 1 10
21 2 7
21 3 7
21 4 2
21 5 11
21 6 8
21 7 10
21 8 6
21 9 9
21 10 5
21 11 5
21 12 11
21 13 11
21 14 1
21 15 9
21 16 1
21 17 3
21 18 8
21 19 10
21 20 12
22 0 2
22 1 12
22 2 12
22 3 5
22 4 1
22 5 6
22 6 8
22 7 4
22 8 6
22 9 8
22 10 5
22 11 7
22 12 10
22 13 11
22 14 4
22 15 7
22 16 7
22 17 2
22 18 1
22 19 4
22 20 1
22 21 3
23 0 2
23 1 1
23 2 11
23 3 6
23 4 5
23 5 12
23 6 10
23 7 5
23 8 7
23 9 9
23 10 2
23 11 2
23 12 1
23 13 12
23 14 8
23 15 7
23 16 7
23 17 2
23 18 5
23 19 12
23 20 8
23 21 4
23 22 5
24 0 5
24 1 12
24 2 7
24 3 8
24 4 1
24 5 7
24 6 8
24 7 1
24 8 10
24 9 5
24 10 3
24 11 3
24 12 12
24 13 8
24 14 4
24 15 5
24 16 1
24 17 7
24 18 10
24 19 2
24 20 2
24 21 5
24 22 8
24 23 6
25 0 2
25 1 9
25 2 10
25 3 6
25 4 11
25 5 7
25 6 10
25 7 7
25 8 7
25 9 6
25 10 12
25 11 5
25 12 1
25 13 8
25 14 1
25 15 10
25 16 3
25 17 8
25 18 7
25 19 2
25 20 4
25 21 2
25 22 10
25 23 12
25 24 3
26 0 1
26 1 5
26 2 8
26 3 8
26 4 10
26 5 11
26 6 11
26 7 11
26 8 10
26 9 6
26 10 8
26 11 11
26 12 4
26 13 11
26 14 10
26 15 6
26 16 7
26 17 8
26 18 7
26 19 8
26 20 2
26 21 1
26 22 6
26 23 1
26 24 10
26 25 11
27 0 5
27 1 10
27 2 2
27 3 11
27 4 6
27 5 2
27 6 3
27 7 7
27 8 1
27 9 2
27 10 7
27 11 6
27 12 7
27 13 1
27 14 10
27 15 9
27 16 9
27 17 10
27 18 7
27 19 6
27 20 7
27 21 12
27 22 12
27 23 11
27 24 11
27 25 5
27 26 4
28 0 10
28 1 3
28 2 4
28 3 1
28 4 3
28 5 3
28 6 9
28 7 4
28 8 2
28 9 5
28 10 4
28 11 2
28 12 8
28 13 6
28 14 10
28 15 7
28 16 11
28 17 10
28 18 8
28 19 3
28 20 6
28 21 10
28 22 4
28 23 6
28 24 1
28 25 12
28 26 6
28 27 3
29 0 5
29 1 12
29 2 9
29 3 4
29 4 8
29 5 6
29 6 11
29 7 3
29 8 10
29 9 8
29 10 3
29 11 12
29 12 12
29 13 9
29 14 10
29 15 2
29 16 5
29 17 5
29 18 9
29 19 7
29 20 6
29 21 1
29 22 10
29 23 2
29 24 12
29 25 1
29 26 12
29 27 3
29 28 3
30 0 8
30 1 4
30 2 2
30 3 10
30 4 7
30 5 7
30 6 12
30 7 7
30 8 11
30 9 3
30 10 10
30 11 12
30 12 7
30 13 10
30 14 6
30 15 5
30 16 12
30 17 6
30 18 8
30 19 11
30 20 2
30 21 2
30 22 2
30 23 7
30 24 3
30 25 9
30 26 9
30 27 5
30 28 6
30 29 2
31 0 11
31 1 8
31 2 1
31 3 3
31 4 1
31 5 5
31 6 7
31 7 2
31 8 2
31 9 7
31 10 11
31 11 1
31 12 4
31 13 11
31 14 2
31 15 12
31 16 3
31 17 10
31 18 9
31 19 3
31 20 8
31 21 1
31 22 8
31 23 5
31 24 12
31 25 4
31 26 8
31 27 12
31 28 9
31 29 7
31 30 6
32 0 6
32 1 7
32 2 5
32 3 3
32 4 8
32 5 8
32 6 5
32 7 6
32 8 1
32 9 11
32 10 6
32 11 6
32 12 11
32 13 3
32 14 2
32 15 6
32 16 2
32 17 7
32 18 2
32 19 4
32 20 9
32 21 8
32 22 8
32 23 1
32 24 4
32 25 1
32 26 9
32 27 12
32 28 9
32 29 5
32 30 3
32 31 3
33 0 12
33 1 8
33 2 8
33 3 11
33 4 11
33 5 4
33 6 4
33 7 5
33 8 2
33 9 6
33 10 2
33 11 7
33 12 12
33 13 4
33 14 3
33 15 1
33 16 12
33 17 7
33 18 1
33 19 4
33 20 2
33 21 12
33 22 3
33 23 7
33 24 5
33 25 7
33 26 8
33 27 1
33 28 6
33 29 12
33 30 7
33 31 1
33 32 11
34 0 2
34 1 7
34 2 4
34 3 7
34 4 3
34 5 12
34 6 11
34 7 6
34 8 10
34 9 10
34 10 11
34 11 8
34 12 6
34 13 7
34 14 3
34 15 2
34 16 7
34 17 6
34 18 8
34 19 11
34 20 9
34 21 7
34 22 10
34 23 7
34 24 5
34 25 12
34 26 7
34 27 10
34 28 5
34 29 10
34 30 2
34 31 4
34 32 5
34 33 11
35 0 8
35 1 12
35 2 7
35 3 6
35 4 9
35 5 8
35 6 4
35 7 1
35 8 7
35 9 2
35 10 6
35 11 10
35 12 8
35 13 3
35 14 7
35 15 11
35 16 7
35 17 11
35 18 3
35 19 10
35 20 9
35 21 10
35 22 2
35 23 11
35 24 9
35 25 2
35 26 11
35 27 9
35 28 3
35 29 12
35 30 8
35 31 4
35 32 3
35 33 4
35 34 8
36 0 10
36 1 7
36 2 3
36 3 2
36 4 3
36 5 12
36 6 2
36 7 5
36 8 8
36 9 12
36 10 11
36 11 6
36 12 6
36 13 2
36 14 9
36 15 12
36 16 5
36 17 12
36 18 1
36 19 3
36 20 1
36 21 10
36 22 11
36 23 10
36 24 8
36 25 3
36 26 9
36 27 11
36 28 7
36 29 6
36 30 12
36 31 3
36 32 6
36 33 4
36 34 2
36 35 6
37 0 12
37 1 1
37 2 9
37 3 7
37 4 7
37 5 11
37 6 12
37 7 2
37 8 7
37 9 11
37 10 12
37 11 8
37 12 8
37 13 2
37 14 6
37 15 12
37 16 8
37 17 12
37 18 11
37 19 2
37 20 10
37 21 9
37 22 2
37 23 6
37 24 7
37 25 2
37 26 2
37 27 3
37 28 2
37 29 4
37 30 11
37 31 7
37 32 5
37 33 1
37 34 7
37 35 10
37 36 4
38 0 2
38 1 1
38 2 6
38 3 1
38 4 8
38 5 1
38 6 8
38 7 3
38 8 6
38 9 6
38 10 2
38 11 5
38 12 11
38 13 4
38 14 12
38 15 2
38 16 12
38 17 6
38 18 7
38 19 8
38 20 6
38 21 9
38 22 6
38 23 5
38 24 4
38 25 9
38 26 12
38 27 1
38 28 6
38 29 11
38 30 7
38 31 8
38 32 10
38 33 9
38 34 11
38 35 8
38 36 1
38 37 9
39 0 2
39 1 2
39 2 6
39 3 1
39 4 7
39 5 3
39 6 3
39 7 11
39 8 8
39 9 10
39 10 4
39 11 2
39 12 12
39 13 9
39 14 6
39 15 10
39 16 3
39 17 1
39 18 9
39 19 4
39 20 6
39 21 3
39 22 5
39 23 2
39 24 4
39 25 11
39 26 8
39 27 12
39 28 1
39 29 11
39 30 12
39 31 9
39 32 10
39 33 1
39 34 12
39 35 10
39 36 8
39 37 9
39 38 6
40 0 2
40 1 1
40 2 3
40 3 10
40 4 1
40 5 12
40 6 4
40 7 10
40 8 5
40 9 12
40 10 6
40 11 12
40 12 9
40 13 8
40 14 3
40 15 3
40 16 7
40 17 12
40 18 12
40 19 8
40 20 1
40 21 4
40 22 3
40 23 10
40 24 9
40 25 9
40 26 3
40 27 1
40 28 1
40 29 7
40 30 1
40 31 8
40 32 4
40 33 4
40 34 2
40 35 12
40 36 1
40 37 6
40 38 12
40 39 3
41 0 11
41 1 2
41 2 6
41 3 4
41 4 12
41 5 8
41 6 12
41 7 6
41 8 9
41 9 2
41 10 6
41 11 10
41 12 9
41 13 7
41 14 7
41 15 7
41 16 7
41 17 9
41 18 1
41 19 6
41 20 3
41 21 12
41 22 5
41 23 8
41 24 12
41 25 6
41 26 9
41 27 9
41 28 8
41 29 2
41 30 12
41 31 8
41 32 2
41 33 4
41 34 7
41 35 1
41 36 5
41 37 6
41 38 1
41 39 2
41 40 7
42 0 3
42 1 9
42 2 2
42 3 8
42 4 1
42 5 8
42 6 7
42 7 3
42 8 4
42 9 8
42 10 9
42 11 9
42 12 11
42 13 7
42 14 4
42 15 6
42 16 4
42 17 3
42 18 2
42 19 6
42 20 11
42 21 1
42 22 1
42 23 9
42 24 7
42 25 4
42 26 2
42 27 8
42 28 4
42 29 12
42 30 11
42 31 6
42 32 7
42 33 4
42 34 8
42 35 1
42 36 8
42 37 4
42 38 7
42 39 3
42 40 2
42 41 7
43 0 12
43 1 4
43 2 1
43 3 11
43 4 9
43 5 1
43 6 8
43 7 5
43 8 5
43 9 5
43 10 6
43 11 11
43 12 2
43 13 9
43 14 6
43 15 11
43 16 9
43 17 4
43 18 5
43 19 11
43 20 11
43 21 6
43 22 6
43 23 10
43 24 6
43 25 5
43 26 9
43 27 6
43 28 10
43 29 9
43 30 9
43 31 8
43 32 10
43 33 1
43 34 9
43 35 11
43 36 3
43 37 10
43 38 5
43 39 2
43 40 3
43 41 6
43 42 3
44 0 1
44 1 1
44 2 4
44 3 5
44 4 2
44 5 7
44 6 3
44 7 4
44 8 8
44 9 5
44 10 9
44 11 7
44 12 5
44 13 5
44 14 3
44 15 11
44 16 4
44 17 12
44 18 7
44 19 3
44 20 2
44 21 8
44 22 10
44 23 7
44 24 6
44 25 9
44 26 3
44 27 12
44 28 6
44 29 6
44 30 5
44 31 9
44 32 6
44 33 8
44 34 9
44 35 5
44 36 12
44 37 4
44 38 7
44 39 4
44 40 11
44 41 8
44 42 12
44 43 10
45 0 6
45 1 6
45 2 6
45 3 6
45 4 9
45 5 2
45 6 5
45 7 10
45 8 2
45 9 5
45 10 12
45 11 8
45 12 4
45 13 5
45 14 11
45 15 1
45 16 10
45 17 12
45 18 4
45 19 4
45 20 12
45 21 10
45 22 5
45 23 8
45 24 10
45 25 5
45 26 5
45 27 12
45 28 11
45 29 12
45 30 6
45 31 11
45 32 4
45 33 10
45 34 6
45 35 4
45 36 9
45 37 9
45 38 3
45 39 8
45 40 6
45 41 7
45 42 10
45 43 11
45 44 9
46 0 9
46 1 11
46 2 1
46 3 1
46 4 12
46 5 7
46 6 1
46 7 2
46 8 6
46 9 3
46 10 7
46 11 8
46 12 7
46 13 12
46 14 12
46 15 7
46 16 3
46 17 5
46 18 11
46 19 9
46 20 1
46 21 2
46 22 1
46 23 8
46 24 10
46 25 11
46 26 3
46 27 9
46 28 2
46 29 12
46 30 3
46 31 12
46 32 8
46 33 3
46 34 2
46 35 9
46 36 3
46 37 12
46 38 11
46 39 1
46 40 7
46 41 7
46 42 8
46 43 8
46 44 7
46 45 12
47 0 12
47 1 8
47 2 8
47 3 10
47 4 2
47 5 11
47 6 2
47 7 4
47 8 8
47 9 4
47 10 5
47 11 12
47 12 5
47 13 2
47 14 2
47 15 11
47 16 4
47 17 8
47 18 6
47 19 3
47 20 5
47 21 1
47 22 11
47 23 12
47 24 11
47 25 8
47 26 9
47 27 5
47 28 2
47 29 5
47 30 7
47 31 10
47 32 6
47 33 7
47 34 3
47 35 12
47 36 8
47 37 8
47 38 1
47 39 10
47 40 10
47 41 11
47 42 2
47 43 3
47 44 7
47 45 8
47 46 4
48 0 7
48 1 5
48 2 2
48 3 7
48 4 8
48 5 2
48 6 6
48 7 2
48 8 9
48 9 5
48 10 5
48 11 12
48 12 11
48 13 9
48 14 1
48 15 6
48 16 1
48 17 8
48 18 12
48 19 8
48 20 3
48 21 9
48 22 8
48 23 3
48 24 4
48 25 12
48 26 8
48 27 2
48 28 5
48 29 12
48 30 2
48 31 8
48 32 7
48 33 9
48 34 8
48 35 12
48 36 10
48 37 9
48 38 3
48 39 11
48 40 4
48 41 3
48 42 5
48 43 11
48 44 10
48 45 12
48 46 11
48 47 10
49 0 9
49 1 8
49 2 10
49 3 10
49 4 9
49 5 2
49 6 6
49 7 5
49 8 12
49 9 10
49 10 4
49 11 8
49 12 11
49 13 7
49 14 9
49 15 7
49 16 12
49 17 5
49 18 9
49 19 11
49 20 11
49 21 2
49 22 12
49 23 2
49 24 1
49 25 6
49 26 7
49 27 3
49 28 6
49 29 6
49 30 6
49 31 11
49 32 6
49 33 9
49 34 4
49 35 5
49 36 9
49 37 12
49 38 8
49 39 2
49 40 5
49 41 8
49 42 3
49 43 4
49 44 4
49 45 5
49 46 7
49 47 8
49 48 10
50 0 10
50 1 10
50 2 8
50 3 12
50 4 9
50 5 10
50 6 2
50 7 5
50 8 2
50 9 4
50 10 5
50 11 2
50 12 10
50 13 2
50 14 1
50 15 3
50 16 5
50 17 3
50 18 10
50 19 9
50 20 12
50 21 2
50 22 9
50 23 7
50 24 8
50 25 4
50 26 4
50 27 1
50 28 8
50 29 5
50 30 4
50 31 3
50 32 7
50 33 11
50 34 3
50 35 12
50 36 9
50 37 5
50 38 8
50 39 3
50 40 3
50 41 7
50 42 1
50 43 11
50 44 9
50 45 12
50 46 11
50 47 3
50 48 6
50 49 3
51 0 6
51 1 7
51 2 9
51 3 4
51 4 7
51 5 4
51 6 11
51 7 5
51 8 9
51 9 3
51 10 11
51 11 6
51 12 8
51 13 1
51 14 12
51 15 6
51 16 6
51 17 6
51 18 2
51 19 1
51 20 10
51 21 11
51 22 6
51 23 1
51 24 5
51 25 3
51 26 9
51 27 9
51 28 5
51 29 2
51 30 8
51 31 5
51 32 9
51 33 8
51 34 11
51 35 12
51 36 12
51 37 6
51 38 7
51 39 5
51 40 4
51 41 2
51 42 3
51 43 10
51 44 8
51 45 1
51 46 8
51 47 8
51 48 10
51 49 12
51 50 2
52 0 3
52 1 7
52 2 8
52 3 12
52 4 2
52 5 10
52 6 8
52 7 6
52 8 8
52 9 10
52 10 4
52 11 9
52 12 4
52 13 6
52 14 4
52 15 1
52 16 9
52 17 8
52 18 7
52 19 2
52 20 4
52 21 1
52 22 11
52 23 4
52 24 3
52 25 5
52 26 11
52 27 5
52 28 5
52 29 8
52 30 11
52 31 10
52 32 12
52 33 9
52 34 5
52 35 1
52 36 7
52 37 6
52 38 4
52 39 8
52 40 7
52 41 4
52 42 11
52 43 3
52 44 6
52 45 9
52 46 4
52 47 1
52 48 1
52 49 9
52 50 8
52 51 5
53 0 7
53 1 1
53 2 2
53 3 9
53 4 10
53 5 1
53 6 2
53 7 7
53 8 9
53 9 2
53 10 1
53 11 12
53 12 12
53 13 11
53 14 4
53 15 8
53 16 9
53 17 3
53 18 10
53 19 10
53 20 4
53 21 7
53 22 11
53 23 10
53 24 9
53 25 4
53 26 11
53 27 5
53 28 5
53 29 11
53 30 1
53 31 11
53 32 10
53 33 9
53 34 10
53 35 11
53 36 5
53 37 6
53 38 12
53 39 1
53 40 11
53 41 11
53 42 4
53 43 8
53 44 1
53 45 3
53 46 6
53 47 4
53 48 9
53 49 12
53 50 9
53 51 4
53 52 11
54 0 7
54 1 6
54 2 1
54 3 4
54 4 7
54 5 2
54 6 11
54 7 6
54 8 9
54 9 7
54 10 9
54 11 11
54 12 3
54 13 8
54 14 6
54 15 8
54 16 9
54 17 10
54 18 6
54 19 3
54 20 5
54 21 5
54 22 8
54 23 9
54 24 10
54 25 7
54 26 4
54 27 12
54 28 9
54 29 5
54 30 12
54 31 1
54 32 1
54 33 1
54 34 4
54 35 6
54 36 12
54 37 9
54 38 4
54 39 4
54 40 6
54 41 8
54 42 11
54 43 10
54 44 2
54 45 9
54 46 4
54 47 5
54 48 10
54 49 9
54 50 7
54 51 8
54 52 2
54 53 5
55 0 7
55 1 12
55 2 7
55 3 6
55 4 12
55 5 7
55 6 6
55 7 3
55 8 12
55 9 4
55 10 4
55 11 6
55 12 12
55 13 9
55 14 9
55 15 6
55 16 3
55 17 7
55 18 7
55 19 7
55 20 7
55 21 1
55 22 12
55 23 6
55 24 9
55 25 5
55 26 6
55 27 4
55 28 10
55 29 11
55 30 9
55 31 6
55 32 12
55 33 9
55 34 10
55 35 1
55 36 9
55 37 5
55 38 1
55 39 10
55 40 9
55 41 5
55 42 11
55 43 12
55 44 7
55 45 12
55 46 8
55 47 5
55 48 2
55 49 3
55 50 10
55 51 8
55 52 11
55 53 11
55 54 3
56 0 1
56 1 8
56 2 1
56 3 5
56 4 5
56 5 4
56 6 12
56 7 12
56 8 6
56 9 7
56 10 10
56 11 8
56 12 9
56 13 3
56 14 3
56 15 6
56 16 6
56 17 7
56 18 11
56 19 1
56 20 10
56 21 12
56 22 11
56 23 4
56 24 8
56 25 11
56 26 5
56 27 1
56 28 4
56 29 8
56 30 12
56 31 6
56 32 2
56 33 8
56 34 10
56 35 6
56 36 7
56 37 3
56 38 6
56 39 2
56 40 9
56 41 4
56 42 5
56 43 5
56 44 2
56 45 6
56 46 12
56 47 8
56 48 7
56 49 7
56 50 12
56 51 8
56 52 10
56 53 5
56 54 9
56 55 7
57 0 12
57 1 10
57 2 1
57 3 11
57 4 2
57 5 11
57 6 5
57 7 9
57 8 6
57 9 5
57 10 2
57 11 1
57 12 11
57 13 6
57 14 6
57 15 3
57 16 5
57 17 8
57 18 8
57 19 3
57 20 8
57 21 5
57 22 10
57 23 5
57 24 8
57 25 10
57 26 1
57 27 7
57 28 3
57 29 10
57 30 11
57 31 1
57 32 9
57 33 6
57 34 4
57 35 7
57 36 6
57 37 5
57 38 10
57 39 4
57 40 7
57 41 5
57 42 2
57 43 10
57 44 6
57 45 8
57 46 9
57 47 9
57 48 8
57 49 8
57 50 6
57 51 7
57 52 3
57 53 3
57 54 4
57 55 6
57 56 9
58 0 5
58 1 5
58 2 8
58 3 12
58 4 12
58 5 7
58 6 2
58 7 11
58 8 4
58 9 5
58 10 3
58 11 11
58 12 10
58 13 8
58 14 4
58 15 6
58 16 7
58 17 10
58 18 2
58 19 2
58 20 1
58 21 2
58 22 3
58 23 10
58 24 1
58 25 2
58 26 5
58 27 3
58 28 6
58 29 7
58 30 10
58 31 1
58 32 12
58 33 9
58 34 1
58 35 9
58 36 6
58 37 5
58 38 6
58 39 8
58 40 6
58 41 4
58 42 10
58 43 2
58 44 10
58 45 2
58 46 5
58 47 2
58 48 1
58 49 4
58 50 1
58 51 6
58 52 2
58 53 5
58 54 3
58 55 2
58 56 7
58 57 11
59 0 4
59 1 7
59 2 4
59 3 7
59 4 11
59 5 1
59 6 5
59 7 12
59 8 3
59 9 7
59 10 1
59 11 4
59 12 2
59 13 11
59 14 3
59 15 5
59 16 8
59 17 5
59 18 12
59 19 8
59 20 4
59 21 7
59 22 7
59 23 2
59 24 8
59 25 8
59 26 7
59 27 8
59 28 7
59 29 8
59 30 11
59 31 10
59 32 6
59 33 9
59 34 7
59 35 11
59 36 5
59 37 4
59 38 4
59 39 12
59 40 1
59 41 3
59 42 10
59 43 12
59 44 6
59 45 3
59 46 12
59 47 11
59 48 4
59 49 4
59 50 5
59 51 10
59 52 10
59 53 10
59 54 7
59 55 12
59 56 2
59 57 11
59 58 3
